%%%%%%%%%%%%%%%%%%%%%%%%%%%%%%%%%%%%%%%%%%%%%%%%%%%%%%%%%%%%%%%%%%%%%%%%%
%FILE DATA:	Soccer Computational Problem for MiniZinc Models
%AUTHORS:	Robinson Duque, Alejandro Arbelaez, Juan Francisco Díaz
%CONTACT:  	robinson.duque@correounivalle.edu.co 
%LAST UPDATE:	May, 2018 
%ROUND ROBIN:2
%TEAMS:20
%PRESENT FIXTURE:24
%FIXTURES TO PLAY:14
%GAMES TO PLAY:140
%%%%%%%%%%%%%%%%%%%%%%%%%%%%%%%%%%%%%%%%%%%%%%%%%%%%%%%%%%%%%%%%%%%%%%%%%
%Number of teams:
n=20;

%For the purpose of our models, we offer two representations of the games to play, namely fixtures and games to play:

%Fixtures to play:
%fixtures=[|0,0,1,1,1,1,1,1,0,0,1,1,0,1,0,1,1,1,1,1
%|0,0,0,0,1,0,1,1,0,1,1,1,1,1,1,1,1,1,1,1
%|1,0,0,1,0,1,1,0,1,1,1,0,1,1,1,0,1,1,1,1
%|1,0,1,0,1,1,1,0,0,1,0,0,1,1,1,1,1,1,1,1
%|1,1,0,1,0,1,1,1,1,0,0,1,1,1,1,0,1,1,1,0
%|1,0,1,1,1,0,1,1,1,1,1,1,0,1,1,1,0,1,0,0
%|1,1,1,1,1,1,0,1,0,1,0,1,0,1,0,1,1,1,0,1
%|1,1,0,0,1,1,1,0,0,1,0,1,1,1,1,0,1,1,1,1
%|0,0,1,0,1,1,0,0,0,1,1,1,1,1,1,1,1,1,1,1
%|0,1,1,1,0,1,1,1,1,0,0,1,1,0,1,0,1,1,1,1
%|1,1,1,0,0,1,0,0,1,0,0,1,1,1,1,1,1,1,1,1
%|1,1,0,0,1,1,1,1,1,1,1,0,1,1,1,1,0,0,0,1
%|0,1,1,1,1,0,0,1,1,1,1,1,0,0,1,1,0,1,1,1
%|1,1,1,1,1,1,1,1,1,0,1,1,0,0,0,1,1,1,0,0
%|0,1,1,1,1,1,0,1,1,1,1,1,1,0,0,1,0,1,1,0
%|1,1,0,1,0,1,1,0,1,0,1,1,1,1,1,0,1,0,1,1
%|1,1,1,1,1,0,1,1,1,1,1,0,0,1,0,1,0,0,1,1
%|1,1,1,1,1,1,1,1,1,1,1,0,1,1,1,0,0,0,0,0
%|1,1,1,1,1,0,0,1,1,1,1,0,1,0,1,1,1,0,0,1
%|1,1,1,1,0,0,1,1,1,1,1,1,1,0,0,1,1,0,1,0|];

%Played Fixtures:
%PlayedFixtures=[|0,2,1,1,1,1,1,1,2,2,1,1,2,1,2,1,1,1,1,1
%|2,0,2,2,1,2,1,1,2,1,1,1,1,1,1,1,1,1,1,1
%|1,2,0,1,2,1,1,2,1,1,1,2,1,1,1,2,1,1,1,1
%|1,2,1,0,1,1,1,2,2,1,2,2,1,1,1,1,1,1,1,1
%|1,1,2,1,0,1,1,1,1,2,2,1,1,1,1,2,1,1,1,2
%|1,2,1,1,1,0,1,1,1,1,1,1,2,1,1,1,2,1,2,2
%|1,1,1,1,1,1,0,1,2,1,2,1,2,1,2,1,1,1,2,1
%|1,1,2,2,1,1,1,0,2,1,2,1,1,1,1,2,1,1,1,1
%|2,2,1,2,1,1,2,2,0,1,1,1,1,1,1,1,1,1,1,1
%|2,1,1,1,2,1,1,1,1,0,2,1,1,2,1,2,1,1,1,1
%|1,1,1,2,2,1,2,2,1,2,0,1,1,1,1,1,1,1,1,1
%|1,1,2,2,1,1,1,1,1,1,1,0,1,1,1,1,2,2,2,1
%|2,1,1,1,1,2,2,1,1,1,1,1,0,2,1,1,2,1,1,1
%|1,1,1,1,1,1,1,1,1,2,1,1,2,0,2,1,1,1,2,2
%|2,1,1,1,1,1,2,1,1,1,1,1,1,2,0,1,2,1,1,2
%|1,1,2,1,2,1,1,2,1,2,1,1,1,1,1,0,1,2,1,1
%|1,1,1,1,1,2,1,1,1,1,1,2,2,1,2,1,0,2,1,1
%|1,1,1,1,1,1,1,1,1,1,1,2,1,1,1,2,2,0,2,2
%|1,1,1,1,1,2,2,1,1,1,1,2,1,2,1,1,1,2,0,1
%|1,1,1,1,2,2,1,1,1,1,1,1,1,2,2,1,1,2,1,0|];

%Games to play:
games=[|3,1|4,1|4,3|5,1|5,2|5,4|6,1|6,3|6,4|6,5|7,1|7,2|7,3|7,4|7,5|7,6|8,1|8,2|8,5|8,6|8,7|9,3|9,5|9,6|10,2|10,3|10,4|10,6|10,7|10,8|10,9|11,1|11,2|11,3|11,6|11,9|12,1|12,2|12,5|12,6|12,7|12,8|12,9|12,10|12,11|13,2|13,3|13,4|13,5|13,8|13,9|13,10|13,11|13,12|14,1|14,2|14,3|14,4|14,5|14,6|14,7|14,8|14,9|14,11|14,12|15,2|15,3|15,4|15,5|15,6|15,8|15,9|15,10|15,11|15,12|15,13|16,1|16,2|16,4|16,6|16,7|16,9|16,11|16,12|16,13|16,14|16,15|17,1|17,2|17,3|17,4|17,5|17,7|17,8|17,9|17,10|17,11|17,14|17,16|18,1|18,2|18,3|18,4|18,5|18,6|18,7|18,8|18,9|18,10|18,11|18,13|18,14|18,15|19,1|19,2|19,3|19,4|19,5|19,8|19,9|19,10|19,11|19,13|19,15|19,16|19,17|20,1|20,2|20,3|20,4|20,7|20,8|20,9|20,10|20,11|20,12|20,13|20,16|20,17|20,19|];

%Played Games:
%PlayedGames=[|2,1|2,1|3,1|3,2|3,2|4,1|4,2|4,2|4,3|5,1|5,2|5,3|5,3|5,4|6,1|6,2|6,2|6,3|6,4|6,5|7,1|7,2|7,3|7,4|7,5|7,6|8,1|8,2|8,3|8,3|8,4|8,4|8,5|8,6|8,7|9,1|9,1|9,2|9,2|9,3|9,4|9,4|9,5|9,6|9,7|9,7|9,8|9,8|10,1|10,1|10,2|10,3|10,4|10,5|10,5|10,6|10,7|10,8|10,9|11,1|11,2|11,3|11,4|11,4|11,5|11,5|11,6|11,7|11,7|11,8|11,8|11,9|11,10|11,10|12,1|12,2|12,3|12,3|12,4|12,4|12,5|12,6|12,7|12,8|12,9|12,10|12,11|13,1|13,1|13,2|13,3|13,4|13,5|13,6|13,6|13,7|13,7|13,8|13,9|13,10|13,11|13,12|14,1|14,2|14,3|14,4|14,5|14,6|14,7|14,8|14,9|14,10|14,10|14,11|14,12|14,13|14,13|15,1|15,1|15,2|15,3|15,4|15,5|15,6|15,7|15,7|15,8|15,9|15,10|15,11|15,12|15,13|15,14|15,14|16,1|16,2|16,3|16,3|16,4|16,5|16,5|16,6|16,7|16,8|16,8|16,9|16,10|16,10|16,11|16,12|16,13|16,14|16,15|17,1|17,2|17,3|17,4|17,5|17,6|17,6|17,7|17,8|17,9|17,10|17,11|17,12|17,12|17,13|17,13|17,14|17,15|17,15|17,16|18,1|18,2|18,3|18,4|18,5|18,6|18,7|18,8|18,9|18,10|18,11|18,12|18,12|18,13|18,14|18,15|18,16|18,16|18,17|18,17|19,1|19,2|19,3|19,4|19,5|19,6|19,6|19,7|19,7|19,8|19,9|19,10|19,11|19,12|19,12|19,13|19,14|19,14|19,15|19,16|19,17|19,18|19,18|20,1|20,2|20,3|20,4|20,5|20,5|20,6|20,6|20,7|20,8|20,9|20,10|20,11|20,12|20,13|20,14|20,14|20,15|20,15|20,16|20,17|20,18|20,18|20,19|];

%Played Games - Win Results:
%% 0  0  0  0  0  0  0  0  0  0  1  0  0  0  0  0  0  0  1  0
%% 0  0  0  0  0  0  0  0  0  0  0  0  0  0  0  0  0  0  0  0
%% 0  0  0  0  0  0  0  0  0  0  1  0  0  0  0  0  0  0  0  0
%% 0  0  0  0  0  0  0  0  0  0  0  0  0  0  0  0  0  0  0  0
%% 0  0  0  0  0  0  0  0  0  0  0  0  0  0  0  0  0  0  1  0
%% 1  0  0  0  0  0  0  0  0  0  0  0  0  0  0  0  0  0  0  0
%% 1  1  1  0  0  1  0  1  0  0  0  1  0  0  1  0  0  0  0  0
%% 1  1  0  0  0  0  0  0  0  0  0  1  0  0  0  0  0  0  0  0
%% 0  0  0  0  0  0  0  0  0  0  1  0  0  0  0  0  0  0  1  0
%% 0  1  1  1  0  1  0  1  1  0  0  0  0  1  0  2  0  0  1  0
%% 0  0  0  0  0  0  0  0  0  0  0  0  0  0  0  0  0  0  0  0
%% 0  0  0  0  0  0  0  0  0  0  0  0  0  0  0  0  0  0  0  0
%% 0  1  1  0  1  2  0  1  0  1  0  1  0  1  0  1  2  0  0  0
%% 0  0  0  1  0  1  0  0  0  0  0  1  0  0  0  0  0  0  0  0
%% 0  1  1  1  1  0  0  0  1  0  0  1  0  0  0  0  0  0  0  0
%% 0  0  0  1  0  1  1  0  1  0  0  0  0  0  0  0  0  0  1  0
%% 0  0  0  1  0  0  0  1  0  1  1  0  0  1  0  0  0  0  0  0
%% 1  1  1  1  0  1  1  1  1  0  0  0  1  0  1  0  2  0  0  2
%% 0  0  0  0  0  0  0  0  0  0  0  0  0  0  0  0  0  0  0  0
%% 0  0  0  1  2  2  0  1  1  1  1  1  0  0  0  0  0  0  0  0
%Played Games - Tie Results:
%% 0  2  1  1  1  0  0  0  2  2  0  1  2  1  2  1  1  0  0  1
%% 2  0  2  2  1  2  0  0  2  0  1  1  0  1  0  1  1  0  1  1
%% 1  2  0  1  2  1  0  2  1  0  0  2  0  1  0  2  1  0  1  1
%% 1  2  1  0  1  1  1  2  2  0  2  2  1  0  0  0  0  0  1  0
%% 1  1  2  1  0  1  1  1  1  2  2  1  0  1  0  2  1  1  0  0
%% 0  2  1  1  1  0  0  1  1  0  1  1  0  0  1  0  2  0  2  0
%% 0  0  0  1  1  0  0  0  2  1  2  0  2  1  1  0  1  0  2  1
%% 0  0  2  2  1  1  0  0  2  0  2  0  0  1  1  2  0  0  1  0
%% 2  2  1  2  1  1  2  2  0  0  0  1  1  1  0  0  1  0  0  0
%% 2  0  0  0  2  0  1  0  0  0  2  1  0  1  1  0  0  1  0  0
%% 0  1  0  2  2  1  2  2  0  2  0  1  1  1  1  1  0  1  1  0
%% 1  1  2  2  1  1  0  0  1  1  1  0  0  0  0  1  2  2  2  0
%% 2  0  0  1  0  0  2  0  1  0  1  0  0  1  1  0  0  0  1  1
%% 1  1  1  0  1  0  1  1  1  1  1  0  1  0  2  1  0  1  2  2
%% 2  0  0  0  0  1  1  1  0  1  1  0  1  2  0  1  2  0  1  2
%% 1  1  2  0  2  0  0  2  0  0  1  1  0  1  1  0  1  2  0  1
%% 1  1  1  0  1  2  1  0  1  0  0  2  0  0  2  1  0  0  1  1
%% 0  0  0  0  1  0  0  0  0  1  1  2  0  1  0  2  0  0  2  0
%% 0  1  1  1  0  2  2  1  0  0  1  2  1  2  1  0  1  2  0  1
%% 1  1  1  0  0  0  1  0  0  0  0  0  1  2  2  1  1  0  1  0
%Played Games - Lose Results:
%% 0  0  0  0  0  1  1  1  0  0  0  0  0  0  0  0  0  1  0  0
%% 0  0  0  0  0  0  1  1  0  1  0  0  1  0  1  0  0  1  0  0
%% 0  0  0  0  0  0  1  0  0  1  0  0  1  0  1  0  0  1  0  0
%% 0  0  0  0  0  0  0  0  0  1  0  0  0  1  1  1  1  1  0  1
%% 0  0  0  0  0  0  0  0  0  0  0  0  1  0  1  0  0  0  0  2
%% 0  0  0  0  0  0  1  0  0  1  0  0  2  1  0  1  0  1  0  2
%% 0  0  0  0  0  0  0  0  0  0  0  0  0  0  0  1  0  1  0  0
%% 0  0  0  0  0  0  1  0  0  1  0  0  1  0  0  0  1  1  0  1
%% 0  0  0  0  0  0  0  0  0  1  0  0  0  0  1  1  0  1  0  1
%% 0  0  0  0  0  0  0  0  0  0  0  0  1  0  0  0  1  0  0  1
%% 1  0  1  0  0  0  0  0  1  0  0  0  0  0  0  0  1  0  0  1
%% 0  0  0  0  0  0  1  1  0  0  0  0  1  1  1  0  0  0  0  1
%% 0  0  0  0  0  0  0  0  0  0  0  0  0  0  0  0  0  1  0  0
%% 0  0  0  0  0  0  0  0  0  1  0  0  1  0  0  0  1  0  0  0
%% 0  0  0  0  0  0  1  0  0  0  0  0  0  0  0  0  0  1  0  0
%% 0  0  0  0  0  0  0  0  0  2  0  0  1  0  0  0  0  0  0  0
%% 0  0  0  0  0  0  0  0  0  0  0  0  2  0  0  0  0  2  0  0
%% 0  0  0  0  0  0  0  0  0  0  0  0  0  0  0  0  0  0  0  0
%% 1  0  0  0  1  0  0  0  1  1  0  0  0  0  0  1  0  0  0  0
%% 0  0  0  0  0  0  0  0  0  0  0  0  0  0  0  0  0  2  0  0

%%Initial points:
iPoints=[24, 18, 21, 17, 22, 17, 36, 24, 23, 41, 19, 18, 47, 27, 34, 31, 30, 52, 19, 42];

%%Initial positions:
%iPositions=[11, 18, 14, 20, 13, 19, 5, 10, 12, 4, 16, 17, 2, 9, 6, 7, 8, 1, 15, 3];

%%Position Constraints:
%numberPositionConstraints=2;

%%Total Fixtures:
%totalFixtures=38;

%%Fixtures to Play:
%fixturesToPlay=14;

%%Position Constraints Built With
%wantedPoints=[1, 1, 0, 1, 1, 3, 3, 0, 3, 3, 1, 3, 1, 3, 3, 1, 0, 3, 3, 0, 0, 0, 0, 3, 0, 0, 3, 0, 3, 0, 3, 0, 1, 3, 1, 0, 0, 3, 1, 1, 1, 3, 1, 3, 3, 0, 3, 3, 3, 0, 3, 3, 3, 1, 0, 0, 1, 1, 1, 0, 3, 1, 3, 3, 0, 0, 3, 1, 0, 1, 1, 0, 3, 3, 3, 3, 3, 0, 1, 0, 3, 1, 3, 3, 3, 1, 0, 1, 0, 1, 3, 1, 3, 3, 3, 0, 0, 0, 0, 1, 1, 3, 3, 3, 1, 3, 3, 0, 3, 3, 0, 1, 1, 1, 0, 1, 3, 0, 0, 0, 3, 3, 1, 1, 3, 1, 0, 3, 3, 3, 1, 3, 0, 1, 0, 1, 1, 3, 3, 1];

%POSITION CONSTRAINTS
%%[|teamID, operator, position|...]
%%operators index:
%%%1 for =  operator
%%%2 for >  operator
%%%3 for >= operator
%%%4 for <  operator
%%%5 for <= operator

positionConstraints=[|15,1,4|9,1,11|];

%SCORE VECTOR CONSTRAINTS
%%[|teamID, operator, wantedPoints|...]
%%operators index:
%%%1 for =  operator
%%%2 for >  operator
%%%3 for >= operator
%%%4 for <  operator
%%%5 for <= operator

%scoreVectorConstraints=[|15,1,57|9,1,43|];

%Instance Features:
%features=T,FP,TF,C,C/T,C/TF,FP/TF,FP/T,FP*C/T,FP*T/C,(C/T)*(FP/TF),Distance,Distance/C,Distance/T,Distance/(C*T)
%values=20,14,38,2,0.1,0.05263157894736842,0.3684210526315789,0.7,1.4,140.0,0.03684210526315789,3,1.5,0.15,0.075



gamesOfEveryTeam=[14,14,14,14,14,14,14,14,14,14,14,14,14,14,14,14,14,14,14,14];
weights=[|77,21,0,2|15,34,0,51|59,31,0,10|6,67,0,27|31,46,0,23|17,18,0,65|98,0,0,2|81,18,0,1|68,14,0,18|4,44,0,52|73,26,0,1|6,81,0,13|59,32,0,9|95,0,0,5|48,37,0,15|5,82,0,13|69,14,0,17|62,9,0,29|63,3,0,34|66,6,0,28|51,40,0,9|91,4,0,5|3,32,0,65|77,19,0,4|48,14,0,38|22,16,0,62|35,61,0,4|21,25,0,54|74,22,0,4|29,56,0,15|94,1,0,5|13,23,0,64|42,38,0,20|24,45,0,31|57,39,0,4|27,73,0,0|35,54,0,11|54,21,0,25|90,4,0,6|74,12,0,14|28,67,0,5|98,2,0,0|100,0,0,0|38,15,0,47|16,23,0,61|18,82,0,0|61,12,0,27|50,8,0,42|69,13,0,18|37,55,0,8|51,38,0,11|39,0,0,61|41,35,0,24|76,17,0,7|69,22,0,9|84,9,0,7|19,33,0,48|77,17,0,6|3,66,0,31|81,5,0,14|60,10,0,30|33,40,0,27|63,10,0,27|92,1,0,7|67,9,0,24|86,1,0,13|20,57,0,23|84,0,0,16|41,55,0,4|60,33,0,7|64,27,0,9|88,0,0,12|61,4,0,35|51,37,0,12|29,22,0,49|44,29,0,27|45,55,0,0|76,13,0,11|62,16,0,22|31,56,0,13|29,51,0,20|21,2,0,77|43,50,0,7|51,10,0,39|98,2,0,0|20,10,0,70|61,38,0,1|14,37,0,49|33,61,0,6|92,3,0,5|99,1,0,0|18,4,0,78|34,57,0,9|56,10,0,34|37,3,0,60|68,20,0,12|47,7,0,46|34,27,0,39|66,33,0,1|67,3,0,30|16,29,0,55|66,20,0,14|61,15,0,24|70,13,0,17|97,2,0,1|84,16,0,0|24,51,0,25|19,44,0,37|36,59,0,5|1,25,0,74|49,17,0,34|25,56,0,19|63,30,0,7|54,8,0,38|70,20,0,10|97,3,0,0|11,47,0,42|32,3,0,65|68,7,0,25|25,74,0,1|33,32,0,35|64,29,0,7|96,2,0,2|71,28,0,1|75,25,0,0|75,1,0,24|77,14,0,9|38,30,0,32|19,31,0,50|36,56,0,8|7,66,0,27|83,12,0,5|8,52,0,40|39,24,0,37|4,95,0,1|5,0,0,95|58,21,0,21|95,2,0,3|82,8,0,10|97,1,0,2|];